teste_py.ilp
\ Model _copy
\ LP format - for model browsing. Use MPS format to capture full model detail.
Minimize
 
Subject To
 ztu0: z_u[0] = 0.81
 ztv0: z_v[0] = 1
 R6: v[0] - w[0] - u[0] + z_u[0] = 0
 R10: v[0] - u[0] + z_v[0] <= 0
Bounds
 v[0] free
 u[0] free
 z_u[0] free
 z_v[0] free
End
