teste_py.lp
\ LP format - for model browsing. Use MPS format to capture full model detail.
Minimize
 
Subject To
 R0: gt[0] - 0.3 ton[0] <= 0
 R1: gt[0] - 0.05 ton[0] >= 0
 R2: gt[1] - 0.3 ton[1] <= 0
 R3: gt[1] - 0.05 ton[1] >= 0
 R4: gt[2] - 0.3 ton[2] <= 0
 R5: gt[2] - 0.05 ton[2] >= 0
 R6: gt[3] - 3 ton[3] <= 0
 R7: gt[3] - 1.5 ton[3] >= 0
 R8: gt[4] - 0.3 ton[4] <= 0
 R9: gt[4] - 0.1 ton[4] >= 0
 R10: gt[5] - 0.3 ton[5] <= 0
 R11: gt[5] - 0.05 ton[5] >= 0
 R12: gt[6] - 0.3 ton[6] <= 0
 R13: gt[6] - 0.05 ton[6] >= 0
 R14: gt[7] - 0.3 ton[7] <= 0
 R15: gt[7] - 0.08 ton[7] >= 0
 R16: gt[8] - 0.3 ton[8] <= 0
 R17: gt[8] - 0.08 ton[8] >= 0
 R18: gt[9] - ton[9] <= 0
 R19: gt[9] - 0.25 ton[9] >= 0
 R20: gt[10] - 2.5 ton[10] <= 0
 R21: gt[10] - 0.5 ton[10] >= 0
 R22: gt[11] - ton[11] <= 0
 R23: gt[11] - 0.25 ton[11] >= 0
 R24: gt[12] - 2 ton[12] <= 0
 R25: gt[12] - 0.5 ton[12] >= 0
 R26: gt[13] - ton[13] <= 0
 R27: gt[13] - 0.25 ton[13] >= 0
 R28: gt[14] - 4.2 ton[14] <= 0
 R29: gt[14] - ton[14] >= 0
 R30: gt[15] - 3 ton[15] <= 0
 R31: gt[15] - 0.8 ton[15] >= 0
 R32: gt[16] - 0.8 ton[16] <= 0
 R33: gt[16] - 0.3 ton[16] >= 0
 R34: gt[17] - 0.3 ton[17] <= 0
 R35: gt[17] - 0.1 ton[17] >= 0
 R36: gt[18] - 0.3 ton[18] <= 0
 R37: gt[18] - 0.05 ton[18] >= 0
 R38: gt[19] - 0.2 ton[19] <= 0
 R39: gt[19] - 0.05 ton[19] >= 0
 R40: gt[20] - ton[20] <= 0
 R41: gt[20] - 0.25 ton[20] >= 0
 R42: gt[21] - ton[21] <= 0
 R43: gt[21] - 0.25 ton[21] >= 0
 R44: gt[22] - 3 ton[22] <= 0
 R45: gt[22] - 1.5 ton[22] >= 0
 R46: gt[23] - ton[23] <= 0
 R47: gt[23] - 0.25 ton[23] >= 0
 R48: gt[24] - 0.3 ton[24] <= 0
 R49: gt[24] - 0.1 ton[24] >= 0
 R50: gt[25] - 3 ton[25] <= 0
 R51: gt[25] - ton[25] >= 0
 R52: gt[26] - 2 ton[26] <= 0
 R53: gt[26] - 0.5 ton[26] >= 0
 R54: gt[27] - 0.2 ton[27] <= 0
 R55: gt[27] - 0.08 ton[27] >= 0
 R56: gt[28] - 0.5 ton[28] <= 0
 R57: gt[28] - 0.2 ton[28] >= 0
 R58: gt[29] - 3 ton[29] <= 0
 R59: gt[29] - ton[29] >= 0
 R60: gt[30] - 3 ton[30] <= 0
 R61: gt[30] - ton[30] >= 0
 R62: gt[31] - 3 ton[31] <= 0
 R63: gt[31] - ton[31] >= 0
 R64: gt[32] - 0.2 ton[32] <= 0
 R65: gt[32] - 0.08 ton[32] >= 0
 R66: gt[33] - ton[33] <= 0
 R67: gt[33] - 0.25 ton[33] >= 0
 R68: gt[34] - ton[34] <= 0
 R69: gt[34] - 0.25 ton[34] >= 0
 R70: gt[35] - 0.2 ton[35] <= 0
 R71: gt[35] - 0.08 ton[35] >= 0
 R72: gt[36] - 0.5 ton[36] <= 0
 R73: gt[36] - 0.25 ton[36] >= 0
 R74: gt[37] - ton[37] <= 0
 R75: gt[37] - 0.25 ton[37] >= 0
 R76: gt[38] - ton[38] <= 0
 R77: gt[38] - 0.25 ton[38] >= 0
 R78: gt[39] - 0.5 ton[39] <= 0
 R79: gt[39] - 0.25 ton[39] >= 0
 zu[0]: zu[0] = 1
 zu[1]: zu[1] = 1
 zu[2]: zu[2] = 1
 zu[3]: zu[3] = 1
 zu[4]: zu[4] = 1
 zu[5]: zu[5] = 1
 zu[6]: zu[6] = 1
 zu[7]: zu[7] = 1
 zu[8]: zu[8] = 1
 zu[9]: zu[9] = 1
 zu[10]: zu[10] = 1
 zu[11]: zu[11] = 1
 zu[12]: zu[12] = 1
 zu[13]: zu[13] = 1
 zu[14]: zu[14] = 1
 zu[15]: zu[15] = 1
 zu[16]: zu[16] = 1
 zu[17]: zu[17] = 1
 zu[18]: zu[18] = 1
 zu[19]: zu[19] = 1
 zu[20]: zu[20] = 1
 zu[21]: zu[21] = 1
 zu[22]: zu[22] = 1
 zu[23]: zu[23] = 1
 zu[24]: zu[24] = 1
 zu[25]: zu[25] = 1
 zu[26]: zu[26] = 1
 zu[27]: zu[27] = 1
 zu[28]: zu[28] = 1
 zu[29]: zu[29] = 1
 zu[30]: zu[30] = 1
 zu[31]: zu[31] = 1
 zu[32]: zu[32] = 1
 zu[33]: zu[33] = 1
 zu[34]: zu[34] = 1
 zu[35]: zu[35] = 1
 zu[36]: zu[36] = 1
 zu[37]: zu[37] = 1
 zu[38]: zu[38] = 1
 zu[39]: zu[39] = 1
 R120: tstart[0] - tshut[0] - ton[0] + zu[0] = 0
 R121: tstart[1] - tshut[1] - ton[1] + zu[1] = 0
 R122: tstart[2] - tshut[2] - ton[2] + zu[2] = 0
 R123: tstart[3] - tshut[3] - ton[3] + zu[3] = 0
 R124: tstart[4] - tshut[4] - ton[4] + zu[4] = 0
 R125: tstart[5] - tshut[5] - ton[5] + zu[5] = 0
 R126: tstart[6] - tshut[6] - ton[6] + zu[6] = 0
 R127: tstart[7] - tshut[7] - ton[7] + zu[7] = 0
 R128: tstart[8] - tshut[8] - ton[8] + zu[8] = 0
 R129: tstart[9] - tshut[9] - ton[9] + zu[9] = 0
 R130: tstart[10] - tshut[10] - ton[10] + zu[10] = 0
 R131: tstart[11] - tshut[11] - ton[11] + zu[11] = 0
 R132: tstart[12] - tshut[12] - ton[12] + zu[12] = 0
 R133: tstart[13] - tshut[13] - ton[13] + zu[13] = 0
 R134: tstart[14] - tshut[14] - ton[14] + zu[14] = 0
 R135: tstart[15] - tshut[15] - ton[15] + zu[15] = 0
 R136: tstart[16] - tshut[16] - ton[16] + zu[16] = 0
 R137: tstart[17] - tshut[17] - ton[17] + zu[17] = 0
 R138: tstart[18] - tshut[18] - ton[18] + zu[18] = 0
 R139: tstart[19] - tshut[19] - ton[19] + zu[19] = 0
 R140: tstart[20] - tshut[20] - ton[20] + zu[20] = 0
 R141: tstart[21] - tshut[21] - ton[21] + zu[21] = 0
 R142: tstart[22] - tshut[22] - ton[22] + zu[22] = 0
 R143: tstart[23] - tshut[23] - ton[23] + zu[23] = 0
 R144: tstart[24] - tshut[24] - ton[24] + zu[24] = 0
 R145: tstart[25] - tshut[25] - ton[25] + zu[25] = 0
 R146: tstart[26] - tshut[26] - ton[26] + zu[26] = 0
 R147: tstart[27] - tshut[27] - ton[27] + zu[27] = 0
 R148: tstart[28] - tshut[28] - ton[28] + zu[28] = 0
 R149: tstart[29] - tshut[29] - ton[29] + zu[29] = 0
 R150: tstart[30] - tshut[30] - ton[30] + zu[30] = 0
 R151: tstart[31] - tshut[31] - ton[31] + zu[31] = 0
 R152: tstart[32] - tshut[32] - ton[32] + zu[32] = 0
 R153: tstart[33] - tshut[33] - ton[33] + zu[33] = 0
 R154: tstart[34] - tshut[34] - ton[34] + zu[34] = 0
 R155: tstart[35] - tshut[35] - ton[35] + zu[35] = 0
 R156: tstart[36] - tshut[36] - ton[36] + zu[36] = 0
 R157: tstart[37] - tshut[37] - ton[37] + zu[37] = 0
 R158: tstart[38] - tshut[38] - ton[38] + zu[38] = 0
 R159: tstart[39] - tshut[39] - ton[39] + zu[39] = 0
 zv[0]: zv[0] = 0
 zw[0]: zw[0] = 0
 zv[1]: zv[1] = 0
 zw[1]: zw[1] = 0
 zv[2]: zv[2] = 0
 zw[2]: zw[2] = 0
 zv[3]: zv[3] = 0
 zw[3]: zw[3] = 0
 zv[4]: zv[4] = 0
 zw[4]: zw[4] = 0
 zv[5]: zv[5] = 0
 zw[5]: zw[5] = 0
 zv[6]: zv[6] = 0
 zw[6]: zw[6] = 0
 zv[7]: zv[7] = 0
 zw[7]: zw[7] = 0
 zv[8]: zv[8] = 0
 zw[8]: zw[8] = 0
 zv[9]: zv[9] = 0
 zw[9]: zw[9] = 0
 zv[10]: zv[10] = 0
 zw[10]: zw[10] = 0
 zv[11]: zv[11] = 0
 zw[11]: zw[11] = 0
 zv[12]: zv[12] = 0
 zw[12]: zw[12] = 0
 zv[13]: zv[13] = 0
 zw[13]: zw[13] = 0
 zv[14]: zv[14] = 0
 zw[14]: zw[14] = 0
 zv[15]: zv[15] = 0
 zw[15]: zw[15] = 0
 zv[16]: zv[16] = 0
 zw[16]: zw[16] = 0
 zv[17]: zv[17] = 0
 zw[17]: zw[17] = 0
 zv[18]: zv[18] = 0
 zw[18]: zw[18] = 0
 zv[19]: zv[19] = 0
 zw[19]: zw[19] = 0
 zv[20]: zv[20] = 0
 zw[20]: zw[20] = 0
 zv[21]: zv[21] = 0
 zw[21]: zw[21] = 0
 zv[22]: zv[22] = 0
 zw[22]: zw[22] = 0
 zv[23]: zv[23] = 0
 zw[23]: zw[23] = 0
 zv[24]: zv[24] = 0
 zw[24]: zw[24] = 0
 zv[25]: zv[25] = 0
 zw[25]: zw[25] = 0
 zv[26]: zv[26] = 0
 zw[26]: zw[26] = 0
 zv[27]: zv[27] = 0
 zw[27]: zw[27] = 0
 zv[28]: zv[28] = 0
 zw[28]: zw[28] = 0
 zv[29]: zv[29] = 0
 zw[29]: zw[29] = 0
 zv[30]: zv[30] = 0
 zw[30]: zw[30] = 0
 zv[31]: zv[31] = 0
 zw[31]: zw[31] = 0
 zv[32]: zv[32] = 0
 zw[32]: zw[32] = 0
 zv[33]: zv[33] = 0
 zw[33]: zw[33] = 0
 zv[34]: zv[34] = 0
 zw[34]: zw[34] = 0
 zv[35]: zv[35] = 0
 zw[35]: zw[35] = 0
 zv[36]: zv[36] = 0
 zw[36]: zw[36] = 0
 zv[37]: zv[37] = 0
 zw[37]: zw[37] = 0
 zv[38]: zv[38] = 0
 zw[38]: zw[38] = 0
 zv[39]: zv[39] = 0
 zw[39]: zw[39] = 0
Bounds
Binaries
 tstart[0] tstart[1] tstart[2] tstart[3] tstart[4] tstart[5] tstart[6]
 tstart[7] tstart[8] tstart[9] tstart[10] tstart[11] tstart[12] tstart[13]
 tstart[14] tstart[15] tstart[16] tstart[17] tstart[18] tstart[19]
 tstart[20] tstart[21] tstart[22] tstart[23] tstart[24] tstart[25]
 tstart[26] tstart[27] tstart[28] tstart[29] tstart[30] tstart[31]
 tstart[32] tstart[33] tstart[34] tstart[35] tstart[36] tstart[37]
 tstart[38] tstart[39] tshut[0] tshut[1] tshut[2] tshut[3] tshut[4]
 tshut[5] tshut[6] tshut[7] tshut[8] tshut[9] tshut[10] tshut[11] tshut[12]
 tshut[13] tshut[14] tshut[15] tshut[16] tshut[17] tshut[18] tshut[19]
 tshut[20] tshut[21] tshut[22] tshut[23] tshut[24] tshut[25] tshut[26]
 tshut[27] tshut[28] tshut[29] tshut[30] tshut[31] tshut[32] tshut[33]
 tshut[34] tshut[35] tshut[36] tshut[37] tshut[38] tshut[39] ton[0] ton[1]
 ton[2] ton[3] ton[4] ton[5] ton[6] ton[7] ton[8] ton[9] ton[10] ton[11]
 ton[12] ton[13] ton[14] ton[15] ton[16] ton[17] ton[18] ton[19] ton[20]
 ton[21] ton[22] ton[23] ton[24] ton[25] ton[26] ton[27] ton[28] ton[29]
 ton[30] ton[31] ton[32] ton[33] ton[34] ton[35] ton[36] ton[37] ton[38]
 ton[39]
End
